 $contrl units=angs local=ruednbrg runtyp=makefp
       mult=1 icharg=1 coord=cart icut=11 $end
 $system timlim=99999   mwords=200 $end
 $scf soscf=.f. dirscf=.t. diis=.t. CONV=1.0d-06  $end
 $basis gbasis=n31 ngauss=6 ndfunc=1 $end
 $DAMP IFTTYP(1)=2,0 IFTFIX(1)=1,1 thrsh=500.0 $end
 $MAKEFP  POL=.t. DISP=.t. CHTR=.f.  EXREP=.t. $end
 $data
 fmo_3eni_2.20_lys_061
 C1
  C    6.0   3.5240238283  -0.7957546782  -0.2083678815
  O    8.0   4.2898414706   0.1501479494  -0.3985718714
  N    7.0   2.2727735675  -0.6339885554   0.2022201193
  H    1.0   1.7679259681  -1.4387469740   0.4960857099
  C    6.0   1.7483318182   0.6937939856   0.4769843370
  H    1.0   2.4670124964   1.3930536544   0.0870350433
  C    6.0   0.3890754672   0.9126395471  -0.1958401516
  H    1.0   0.4887461115   0.6848357951  -1.2532866957
  H    1.0   0.1476982326   1.9707981829  -0.1236072570
  C    6.0  -0.7421595320   0.1086717874   0.4083851525
  H    1.0  -0.8383224825   0.3508661690   1.4642887512
  H    1.0  -0.5185769828  -0.9547013865   0.3534688176
  C    6.0  -2.0959369549   0.3461990058  -0.2853911152
  H    1.0  -2.0104825165   0.0895032472  -1.3390560567
  H    1.0  -2.3503848452   1.4025155661  -0.2327878379
  C    6.0  -3.2272561581  -0.4785830991   0.3438293072
  H    1.0  -3.3748189081  -0.2285257617   1.3851707759
  H    1.0  -3.0352870664  -1.5401120865   0.2710512948
  N    7.0  -4.4894897207  -0.2227543287  -0.3437200174
  H    1.0  -4.4371496045  -0.4612507656  -1.3258272114
  H    1.0  -4.7516717488   0.7535164474  -0.2962882231
  H    1.0  -5.2573739381  -0.7530268509   0.0484266529
  H    1.0   1.6732232979   0.8578003456   1.5485529143
  H    1.0   3.8268261005  -1.8271982531  -0.3644649975
$end