 $contrl units=angs local=ruednbrg runtyp=makefp
       mult=1 icharg=1 coord=cart icut=11 $end
 $system timlim=99999   mwords=200 $end
 $scf soscf=.f. dirscf=.t. diis=.t. CONV=1.0d-06  $end
 $basis gbasis=n31 ngauss=6 ndfunc=1 $end
 $DAMP IFTTYP(1)=2,0 IFTFIX(1)=1,1 thrsh=500.0 $end
 $MAKEFP  POL=.t. DISP=.t. CHTR=.f.  EXREP=.t. $end
 $data
 fmo_3eoj_1.30_lys_092
 C1
  C    6.0  -3.4223939243  -0.1280441758   0.7189214751
  O    8.0  -4.0784652214  -0.8030032358  -0.0941705988
  N    7.0  -2.2144043586   0.3451675961   0.4392559103
  H    1.0  -1.7843952721   0.9682885950   1.0826123127
  C    6.0  -1.5401643975  -0.0083680598  -0.7953808844
  H    1.0  -2.1494651256   0.2815741334  -1.6399408507
  C    6.0  -0.1645288219   0.7236230690  -0.8834816824
  H    1.0  -0.3385666894   1.7943867747  -0.8057475828
  H    1.0   0.2253535716   0.5563872633  -1.8843861247
  C    6.0   0.8720409775   0.2856068464   0.1330505796
  H    1.0   0.9768698338  -0.7945301532   0.0089465108
  H    1.0   0.4879366158   0.3996837090   1.1426505727
  C    6.0   2.2236718108   0.9540939622   0.0540058671
  H    1.0   2.2386488034   1.8813255098   0.6150543717
  H    1.0   2.4615516293   1.2261039242  -0.9730645860
  C    6.0   3.3486991072   0.1051983162   0.6058679551
  H    1.0   3.1740648548  -0.1787729693   1.6342874483
  H    1.0   4.2988904156   0.6161953523   0.5481959047
  N    7.0   3.5634430945  -1.2131919900  -0.1321110560
  H    1.0   3.7415472762  -1.0655751912  -1.1168815709
  H    1.0   2.7635346902  -1.8254845071  -0.0598587412
  H    1.0   4.3585541246  -1.7092132082   0.2473025990
  H    1.0  -1.4094578450  -1.0834802682  -0.8435219054
  H    1.0  -3.8129349572   0.1408189523   1.6952404645
$end