 $contrl units=angs local=ruednbrg runtyp=makefp
       mult=1 icharg=1 coord=cart icut=11 $end
 $system timlim=99999   mwords=200 $end
 $scf soscf=.f. dirscf=.t. diis=.t. CONV=1.0d-06  $end
 $basis gbasis=n31 ngauss=6 ndfunc=1 $end
 $DAMP IFTTYP(1)=2,0 IFTFIX(1)=1,1 thrsh=500.0 $end
 $MAKEFP  POL=.t. DISP=.t. CHTR=.f.  EXREP=.t. $end
 $data
 gfp_2wur_0.90_lys_140
 C1
  C    6.0  -2.1807926801   1.3233999763   0.5189484676
  O    8.0  -1.9211679831   1.9982358130  -0.4948156127
  N    7.0  -2.1604637992  -0.0366841465   0.5036869015
  H    1.0  -2.5217803964  -0.5130749534   1.3010420901
  C    6.0  -1.7385197448  -0.8075004718  -0.6288511365
  H    1.0  -1.3384294635  -0.1105273359  -1.3485807254
  C    6.0  -0.7579558704  -1.8622835069  -0.2628713054
  H    1.0  -0.4744464999  -2.3936745548  -1.1683045119
  H    1.0  -1.2365429053  -2.6061197409   0.3702924606
  C    6.0   0.4827520054  -1.3785062967   0.4536017072
  H    1.0   1.1084189500  -2.2400322673   0.6735342826
  H    1.0   0.2085372327  -0.9490083561   1.4125074351
  C    6.0   1.3007863265  -0.3552673864  -0.3245801366
  H    1.0   0.7148971357   0.5479662120  -0.4764512560
  H    1.0   1.5431578635  -0.7448790228  -1.3111919948
  C    6.0   2.5882130649  -0.0040540137   0.4121209969
  H    1.0   3.2527266948  -0.8569396964   0.4562616374
  H    1.0   2.3717418136   0.2920096130   1.4307094323
  N    7.0   3.3226933977   1.0750478736  -0.1850772596
  H    1.0   2.7739495906   1.9257288872  -0.2292066523
  H    1.0   3.5998506813   0.8672695375  -1.1364908909
  H    1.0   4.1683950985   1.2947348762   0.3252193058
  H    1.0  -2.5985688926  -1.2688091566  -1.1066910858
  H    1.0  -2.4704670756   1.7691433052   1.4636050405
$end