 $contrl units=angs local=ruednbrg runtyp=makefp
       mult=1 icharg=1 coord=cart icut=11 $end
 $system timlim=99999   mwords=200 $end
 $scf soscf=.f. dirscf=.t. diis=.t. CONV=1.0d-06  $end
 $basis gbasis=n31 ngauss=6 ndfunc=1 $end
 $DAMP IFTTYP(1)=2,0 IFTFIX(1)=1,1 thrsh=500.0 $end
 $MAKEFP  POL=.t. DISP=.t. CHTR=.f.  EXREP=.t. $end
 $data
 gfp_4gf6_1.10_lys_107
 C1
  C    6.0   2.8751926662   0.8579374466  -0.4821336843
  O    8.0   2.4510659380   1.7711527472   0.2340899771
  N    7.0   2.4762805314  -0.4068513893  -0.3769609254
  H    1.0   2.9538280437  -1.0840053088  -0.9306837692
  C    6.0   1.7062791443  -0.8926400170   0.7508507934
  H    1.0   1.5545253308  -0.0640817428   1.4235467514
  C    6.0   0.3832219732  -1.4895303429   0.2949268295
  H    1.0  -0.0426314015  -2.0636855623   1.1151253814
  H    1.0   0.5434036992  -2.1850613234  -0.5239002044
  C    6.0  -0.5896566603  -0.3929494164  -0.1163752932
  H    1.0  -0.2143898691   0.1209769453  -0.9954136075
  H    1.0  -0.5996543744   0.3493343105   0.6822866413
  C    6.0  -1.9809895404  -0.8958927658  -0.3767630886
  H    1.0  -2.3576343458  -1.4987088066   0.4469700466
  H    1.0  -2.0098710617  -1.5275976571  -1.2577648098
  C    6.0  -2.9372330671   0.2669018313  -0.6546822175
  H    1.0  -3.8823001072  -0.0828177251  -1.0474533714
  H    1.0  -2.5120145928   0.9564274449  -1.3700597604
  N    7.0  -3.2902275953   1.0834172155   0.5425740169
  H    1.0  -2.4761481852   1.5086244655   0.9671941491
  H    1.0  -3.7427351216   0.5270512463   1.2556161820
  H    1.0  -3.9236454069   1.8325512929   0.2986953305
  H    1.0   2.2885787323  -1.6426248598   1.2758446739
  H    1.0   3.5905315225   1.0414938387  -1.2779846235
$end