 $contrl units=angs local=boys runtyp=makefp 
       mult=1 icharg=0  coord=unique icut=11 $end
 $system timlim=99999   mwords=200 $end
 $scf soscf=.f. dirscf=.t. diis=.t. CONV=1.0d-06  $end
 $basis gbasis=n31  ngauss=6 ndfunc=1 
   diffs=.f. diffsp=.t. $end
 $DAMP IFTTYP(1)=3,2 IFTFIX(1)=1,1 thrsh=500.0 $end
 $MAKEFP  POL=.t. DISP=.f. CHTR=.f.  EXREP=.f. $end
 $DATA
 CH2O2
 C1
  C    6.0     -1.691473000         0.170063000         0.000000000
  H    1.0     -2.795002000         0.281013000         0.000000000
  O    8.0     -1.028141000         1.217209000         0.000000000
  O    8.0     -1.369666000        -1.088607000         0.000000000
  H    1.0     -0.343807000        -1.187982000         0.000000000
 $END
