 $contrl units=angs local=ruednbrg runtyp=makefp
       mult=1 icharg=1 coord=cart icut=11 $end
 $system timlim=99999   mwords=200 $end
 $scf soscf=.f. dirscf=.t. diis=.t. CONV=1.0d-06  $end
 $basis gbasis=n31 ngauss=6 ndfunc=1 $end
 $DAMP IFTTYP(1)=2,0 IFTFIX(1)=1,1 thrsh=500.0 $end
 $MAKEFP  POL=.t. DISP=.t. CHTR=.f.  EXREP=.t. $end
 $data
 pyp_3pyp_0.85_lys_078
 C1
  C    6.0  -3.3873071109   0.9058126578   0.2361399509
  O    8.0  -4.1649965496   0.3784632254  -0.5960089018
  N    7.0  -2.2156217495   0.3842388235   0.4962632855
  H    1.0  -1.7238265358   0.7290384793   1.2908758920
  C    6.0  -1.7676050267  -0.8954813836  -0.0827282583
  H    1.0  -1.9118273198  -0.8376967008  -1.1523455931
  C    6.0  -0.2985554974  -1.1906718531   0.2562438159
  H    1.0  -0.0739167043  -2.1826489710  -0.1244912019
  H    1.0  -0.1824229165  -1.2456118855   1.3369395585
  C    6.0   0.6717090863  -0.1871455127  -0.3155800397
  H    1.0   0.4336164308   0.8094657443   0.0447387138
  H    1.0   0.5792910753  -0.1535176263  -1.3978193926
  C    6.0   2.1076173739  -0.5378869561   0.0721541857
  H    1.0   2.4017713204  -1.4743217298  -0.3947427959
  H    1.0   2.1567679260  -0.6970614745   1.1477552292
  C    6.0   3.0472459807   0.5682307415  -0.3213400585
  H    1.0   2.6690380121   1.5087680377   0.0601823720
  H    1.0   3.0640563374   0.6661583582  -1.4005386892
  N    7.0   4.4265074866   0.5194100026   0.0898682026
  H    1.0   4.9102386411  -0.2975736206  -0.2633534690
  H    1.0   4.5319635391   0.5010663022   1.0966505935
  H    1.0   4.9354911439   1.3277628392  -0.2441412131
  H    1.0  -2.3963991861  -1.6974723783   0.2822168078
  H    1.0  -3.6387665747   1.8134286428   0.7743490752
$end